30
1 0 5
2 0 4
2 1 1
3 0 1
3 1 5
3 2 3
4 0 1
4 1 5
4 2 4
4 3 2
5 0 3
5 1 1
5 2 2
5 3 2
5 4 1
6 0 3
6 1 5
6 2 4
6 3 1
6 4 5
6 5 5
7 0 2
7 1 3
7 2 5
7 3 4
7 4 1
7 5 4
7 6 1
8 0 3
8 1 3
8 2 5
8 3 3
8 4 3
8 5 3
8 6 4
8 7 3
9 0 3
9 1 5
9 2 5
9 3 2
9 4 5
9 5 4
9 6 1
9 7 5
9 8 3
10 0 2
10 1 4
10 2 4
10 3 5
10 4 5
10 5 3
10 6 2
10 7 5
10 8 4
10 9 4
11 0 5
11 1 5
11 2 2
11 3 4
11 4 2
11 5 4
11 6 1
11 7 3
11 8 2
11 9 2
11 10 4
12 0 5
12 1 1
12 2 2
12 3 1
12 4 2
12 5 2
12 6 4
12 7 5
12 8 2
12 9 2
12 10 5
12 11 2
13 0 3
13 1 5
13 2 1
13 3 5
13 4 1
13 5 4
13 6 5
13 7 3
13 8 2
13 9 3
13 10 4
13 11 4
13 12 3
14 0 4
14 1 5
14 2 1
14 3 2
14 4 2
14 5 4
14 6 4
14 7 3
14 8 3
14 9 1
14 10 4
14 11 4
14 12 3
14 13 2
15 0 5
15 1 3
15 2 2
15 3 5
15 4 5
15 5 5
15 6 1
15 7 1
15 8 1
15 9 1
15 10 5
15 11 5
15 12 4
15 13 3
15 14 3
16 0 4
16 1 3
16 2 2
16 3 4
16 4 5
16 5 1
16 6 1
16 7 3
16 8 1
16 9 1
16 10 4
16 11 4
16 12 1
16 13 1
16 14 5
16 15 1
17 0 5
17 1 5
17 2 3
17 3 4
17 4 3
17 5 1
17 6 3
17 7 2
17 8 1
17 9 1
17 10 3
17 11 3
17 12 1
17 13 4
17 14 3
17 15 1
17 16 3
18 0 5
18 1 5
18 2 3
18 3 1
18 4 4
18 5 4
18 6 3
18 7 2
18 8 4
18 9 2
18 10 1
18 11 4
18 12 4
18 13 1
18 14 2
18 15 1
18 16 3
18 17 1
19 0 1
19 1 4
19 2 4
19 3 3
19 4 1
19 5 1
19 6 1
19 7 3
19 8 2
19 9 5
19 10 2
19 11 3
19 12 4
19 13 3
19 14 5
19 15 5
19 16 2
19 17 2
19 18 3
20 0 2
20 1 2
20 2 2
20 3 3
20 4 3
20 5 5
20 6 1
20 7 3
20 8 2
20 9 1
20 10 2
20 11 2
20 12 1
20 13 2
20 14 2
20 15 3
20 16 5
20 17 1
20 18 2
20 19 3
21 0 1
21 1 5
21 2 2
21 3 1
21 4 5
21 5 5
21 6 5
21 7 1
21 8 5
21 9 3
21 10 5
21 11 2
21 12 3
21 13 2
21 14 4
21 15 1
21 16 5
21 17 3
21 18 3
21 19 5
21 20 1
22 0 5
22 1 1
22 2 1
22 3 2
22 4 4
22 5 1
22 6 3
22 7 1
22 8 3
22 9 5
22 10 2
22 11 3
22 12 5
22 13 4
22 14 3
22 15 1
22 16 5
22 17 3
22 18 5
22 19 4
22 20 5
22 21 2
23 0 5
23 1 2
23 2 4
23 3 2
23 4 4
23 5 5
23 6 4
23 7 4
23 8 3
23 9 3
23 10 4
23 11 1
23 12 3
23 13 1
23 14 3
23 15 2
23 16 3
23 17 4
23 18 2
23 19 1
23 20 3
23 21 2
23 22 3
24 0 3
24 1 2
24 2 3
24 3 5
24 4 1
24 5 5
24 6 2
24 7 5
24 8 2
24 9 1
24 10 4
24 11 5
24 12 4
24 13 3
24 14 5
24 15 1
24 16 4
24 17 2
24 18 5
24 19 1
24 20 3
24 21 1
24 22 3
24 23 1
25 0 5
25 1 5
25 2 2
25 3 1
25 4 2
25 5 2
25 6 1
25 7 1
25 8 4
25 9 3
25 10 3
25 11 1
25 12 4
25 13 3
25 14 5
25 15 4
25 16 2
25 17 4
25 18 2
25 19 5
25 20 2
25 21 4
25 22 1
25 23 3
25 24 5
26 0 4
26 1 3
26 2 5
26 3 1
26 4 5
26 5 5
26 6 1
26 7 3
26 8 4
26 9 3
26 10 2
26 11 5
26 12 4
26 13 2
26 14 3
26 15 3
26 16 4
26 17 4
26 18 5
26 19 3
26 20 1
26 21 1
26 22 3
26 23 4
26 24 4
26 25 3
27 0 2
27 1 1
27 2 1
27 3 5
27 4 1
27 5 4
27 6 1
27 7 1
27 8 5
27 9 3
27 10 3
27 11 5
27 12 3
27 13 2
27 14 4
27 15 1
27 16 5
27 17 2
27 18 3
27 19 5
27 20 5
27 21 4
27 22 5
27 23 3
27 24 5
27 25 1
27 26 2
28 0 2
28 1 4
28 2 1
28 3 1
28 4 4
28 5 4
28 6 4
28 7 2
28 8 2
28 9 4
28 10 2
28 11 3
28 12 3
28 13 1
28 14 5
28 15 3
28 16 3
28 17 4
28 18 2
28 19 1
28 20 5
28 21 1
28 22 5
28 23 2
28 24 4
28 25 2
28 26 5
28 27 2
29 0 3
29 1 3
29 2 5
29 3 5
29 4 3
29 5 4
29 6 2
29 7 4
29 8 5
29 9 5
29 10 4
29 11 2
29 12 3
29 13 4
29 14 1
29 15 3
29 16 3
29 17 4
29 18 3
29 19 5
29 20 3
29 21 3
29 22 1
29 23 3
29 24 1
29 25 1
29 26 5
29 27 4
29 28 3
